843.98 0
0 6 59 91 16 86 38 44 14 42 43 15 57 87 0
0 52 7 82 19 11 64 63 90 32 51 9 81 33 50 0
0 48 47 49 36 46 8 45 17 84 61 99 96 5 60 0
0 94 95 97 92 37 98 100 85 93 83 18 89 0
0 26 12 76 77 3 79 70 10 62 88 31 69 27 0
0 53 58 40 21 73 72 74 23 67 39 4 0
0 13 2 41 22 75 56 25 55 54 24 29 68 80 0
0 28 1 30 20 66 65 71 35 34 78 0